BEGIN IONS
PEPMASS=450.262
CHARGE=1
MSLEVEL=2
SOURCE_INSTRUMENT=LC-ESI-CID; Lumos
FILENAME=/home/mingxun/Data/data/Metabolomics/Libraries/PNNL/Lipids/LibrariesCreation/PNNL_LipidSpectra_Neg.mgf
SEQ=*..*
IONMODE=Negative
ORGANISM=PNNL-LIPIDS-NEGATIVE
NAME=PE(16:1/0:0) [M-H]1-
PI=Thomas Metz
FORMULA=C21H41N1O7P1
DATACOLLECTOR=Thomas Metz
SMILES=N/A
INCHI=N/A
INCHIAUX=N/A
PUBMED=N/A
SUBMITUSER=mwang87
LIBRARYQUALITY=1
SPECTRUMID=CCMSLIB00010059112
SCANS=1
88.32769	245.804764
93.972839	232.013443
95.618507	268.045868
100.635094	307.082031
105.552155	291.909698
123.586555	369.775604
140.011139	1016.653503
147.90979	356.798553
151.629898	416.599426
158.973969	371.781433
196.037247	2644.280029
205.488373	501.591583
214.048126	15959.319336
253.216827	668097.875
261.997437	462.053406
307.020447	728.224487
409.645721	690.217773
END IONS


BEGIN IONS
PEPMASS=450.262
CHARGE=1
MSLEVEL=2
SOURCE_INSTRUMENT=LC-ESI-HCD; Lumos
FILENAME=/home/mingxun/Data/data/Metabolomics/Libraries/PNNL/Lipids/LibrariesCreation/PNNL_LipidSpectra_Neg.mgf
SEQ=*..*
IONMODE=Negative
ORGANISM=PNNL-LIPIDS-NEGATIVE
NAME=PE(16:1/0:0) [M-H]1-
PI=Thomas Metz
FORMULA=C21H41N1O7P1
DATACOLLECTOR=Thomas Metz
SMILES=N/A
INCHI=N/A
INCHIAUX=N/A
PUBMED=N/A
SUBMITUSER=mwang87
LIBRARYQUALITY=1
SPECTRUMID=CCMSLIB00010059114
SCANS=2
100.93396	282.544464
113.877197	307.384216
140.011642	8027.749023
152.9953	2096.166748
178.184937	1374.054077
196.03775	9324.954102
214.048828	15460.44043
235.208908	752.753296
253.217422	967534.6875
254.221176	771.921692
262.387482	654.0802
271.458923	780.599854
294.089935	762.228088
322.021149	839.201355
END IONS


BEGIN IONS
PEPMASS=476.278
CHARGE=1
MSLEVEL=2
SOURCE_INSTRUMENT=LC-ESI-CID; Lumos
FILENAME=/home/mingxun/Data/data/Metabolomics/Libraries/PNNL/Lipids/LibrariesCreation/PNNL_LipidSpectra_Neg.mgf
SEQ=*..*
IONMODE=Negative
ORGANISM=PNNL-LIPIDS-NEGATIVE
NAME=PE(18:2/0:0) [M-H]1-
PI=Thomas Metz
FORMULA=C23H43N1O7P1
DATACOLLECTOR=Thomas Metz
SMILES=N/A
INCHI=N/A
INCHIAUX=N/A
PUBMED=N/A
SUBMITUSER=mwang87
LIBRARYQUALITY=1
SPECTRUMID=CCMSLIB00010059115
SCANS=3
99.012329	302.66864
137.016525	441.67511
140.011261	1204.163208
150.551758	430.2565
152.995499	834.349426
178.209702	1269.476562
196.037888	3227.924316
214.048141	29480.539062
214.071869	1270.914429
247.366653	793.174438
278.830505	852.584534
279.232513	1467222.375
280.235352	951.054077
280.567749	942.396912
285.79657	797.994751
306.568115	913.472595
394.96698	1693.546265
432.089874	782.323792
432.187653	1374.477661
448.449188	640.251648
455.015808	711.718628
458.298615	1311.985596
486.666687	717.959473
END IONS


